pure_adt/tip2015_weird_nat_mul3acc_comm23.smt2
(set-logic HORN)
(declare-datatypes ((Nat_500 0)) (((zero_135 ) (succ_131 (p_366 Nat_500)))))
(declare-fun diseqNat_500 (Nat_500 Nat_500) Bool)
(declare-fun p_367 (Nat_500 Nat_500) Bool)
(declare-fun iszero_131 (Nat_500) Bool)
(declare-fun issucc_131 (Nat_500) Bool)
(assert (forall ((x_52505 Nat_500))
	(p_367 x_52505 (succ_131 x_52505))))
(assert (iszero_131 zero_135))
(assert (forall ((x_52507 Nat_500))
	(issucc_131 (succ_131 x_52507))))
(assert (forall ((x_52508 Nat_500))
	(diseqNat_500 zero_135 (succ_131 x_52508))))
(assert (forall ((x_52509 Nat_500))
	(diseqNat_500 (succ_131 x_52509) zero_135)))
(assert (forall ((x_52510 Nat_500) (x_52511 Nat_500))
	(=> (diseqNat_500 x_52510 x_52511)
	    (diseqNat_500 (succ_131 x_52510) (succ_131 x_52511)))))
(declare-fun plus_129 (Nat_500 Nat_500 Nat_500) Bool)
(assert (forall ((x_52411 Nat_500) (z_1787 Nat_500) (y_2007 Nat_500))
	(=> (plus_129 x_52411 z_1787 y_2007)
	    (plus_129 (succ_131 x_52411) (succ_131 z_1787) y_2007))))
(assert (forall ((x_52412 Nat_500))
	(plus_129 x_52412 zero_135 x_52412)))
(declare-fun addacc_18 (Nat_500 Nat_500 Nat_500 Nat_500) Bool)
(assert (forall ((x_52413 Nat_500) (x_52399 Nat_500) (y_2008 Nat_500) (z_1788 Nat_500))
	(=> (addacc_18 x_52413 x_52399 (succ_131 y_2008) z_1788)
	    (addacc_18 x_52413 (succ_131 x_52399) y_2008 z_1788))))
(assert (forall ((x_52415 Nat_500) (x_52400 Nat_500) (z_1788 Nat_500))
	(=> (addacc_18 x_52415 zero_135 x_52400 (succ_131 z_1788))
	    (addacc_18 x_52415 zero_135 (succ_131 x_52400) z_1788))))
(assert (forall ((x_52417 Nat_500))
	(addacc_18 x_52417 zero_135 zero_135 x_52417)))
(declare-fun mulacc_8 (Nat_500 Nat_500 Nat_500 Nat_500) Bool)
(assert (forall ((x_52418 Nat_500) (x_52419 Nat_500) (x_52420 Nat_500) (x_52421 Nat_500) (x_52422 Nat_500) (x_52423 Nat_500) (x_52424 Nat_500) (fail_32 Nat_500))
	(=>	(and (mulacc_8 x_52418 zero_135 zero_135 zero_135)
			(mulacc_8 x_52419 (succ_131 zero_135) zero_135 zero_135)
			(mulacc_8 x_52420 zero_135 (succ_131 zero_135) zero_135)
			(mulacc_8 x_52421 zero_135 zero_135 (succ_131 zero_135))
			(addacc_18 x_52422 x_52419 x_52420 x_52421)
			(addacc_18 x_52423 (succ_131 zero_135) (succ_131 zero_135) (succ_131 zero_135))
			(addacc_18 x_52424 x_52418 x_52422 x_52423)
			(plus_129 fail_32 (succ_131 zero_135) x_52424))
		(mulacc_8 (succ_131 zero_135) (succ_131 zero_135) (succ_131 zero_135) (succ_131 zero_135)))))
(assert (forall ((x_52427 Nat_500) (x_52428 Nat_500) (x_52429 Nat_500) (x_52430 Nat_500) (x_52431 Nat_500) (x_52432 Nat_500) (x_52433 Nat_500) (fail_32 Nat_500) (x_52404 Nat_500) (x_52403 Nat_500) (x_52402 Nat_500))
	(=>	(and (diseqNat_500 x_52402 zero_135)
			(mulacc_8 x_52427 x_52402 x_52403 x_52404)
			(mulacc_8 x_52428 (succ_131 zero_135) x_52403 x_52404)
			(mulacc_8 x_52429 x_52402 (succ_131 zero_135) x_52404)
			(mulacc_8 x_52430 x_52402 x_52403 (succ_131 zero_135))
			(addacc_18 x_52431 x_52428 x_52429 x_52430)
			(addacc_18 x_52432 (succ_131 x_52402) (succ_131 x_52403) (succ_131 x_52404))
			(addacc_18 x_52433 x_52427 x_52431 x_52432)
			(plus_129 fail_32 (succ_131 zero_135) x_52433))
		(mulacc_8 fail_32 (succ_131 x_52402) (succ_131 x_52403) (succ_131 x_52404)))))
(assert (forall ((x_52436 Nat_500) (x_52437 Nat_500) (x_52438 Nat_500) (x_52439 Nat_500) (x_52440 Nat_500) (x_52441 Nat_500) (x_52442 Nat_500) (fail_32 Nat_500) (x_52404 Nat_500) (x_52403 Nat_500))
	(=>	(and (diseqNat_500 x_52403 zero_135)
			(mulacc_8 x_52436 zero_135 x_52403 x_52404)
			(mulacc_8 x_52437 (succ_131 zero_135) x_52403 x_52404)
			(mulacc_8 x_52438 zero_135 (succ_131 zero_135) x_52404)
			(mulacc_8 x_52439 zero_135 x_52403 (succ_131 zero_135))
			(addacc_18 x_52440 x_52437 x_52438 x_52439)
			(addacc_18 x_52441 (succ_131 zero_135) (succ_131 x_52403) (succ_131 x_52404))
			(addacc_18 x_52442 x_52436 x_52440 x_52441)
			(plus_129 fail_32 (succ_131 zero_135) x_52442))
		(mulacc_8 fail_32 (succ_131 zero_135) (succ_131 x_52403) (succ_131 x_52404)))))
(assert (forall ((x_52445 Nat_500) (x_52446 Nat_500) (x_52447 Nat_500) (x_52448 Nat_500) (x_52449 Nat_500) (x_52450 Nat_500) (x_52451 Nat_500) (fail_32 Nat_500) (x_52404 Nat_500) (x_52403 Nat_500) (x_52402 Nat_500))
	(=>	(and (diseqNat_500 x_52402 zero_135)
			(mulacc_8 x_52445 x_52402 x_52403 x_52404)
			(mulacc_8 x_52446 (succ_131 zero_135) x_52403 x_52404)
			(mulacc_8 x_52447 x_52402 (succ_131 zero_135) x_52404)
			(mulacc_8 x_52448 x_52402 x_52403 (succ_131 zero_135))
			(addacc_18 x_52449 x_52446 x_52447 x_52448)
			(addacc_18 x_52450 (succ_131 x_52402) (succ_131 x_52403) (succ_131 x_52404))
			(addacc_18 x_52451 x_52445 x_52449 x_52450)
			(plus_129 fail_32 (succ_131 zero_135) x_52451))
		(mulacc_8 fail_32 (succ_131 x_52402) (succ_131 x_52403) (succ_131 x_52404)))))
(assert (forall ((x_52454 Nat_500) (x_52455 Nat_500) (x_52456 Nat_500) (x_52457 Nat_500) (x_52458 Nat_500) (x_52459 Nat_500) (x_52460 Nat_500) (fail_32 Nat_500) (x_52404 Nat_500))
	(=>	(and (diseqNat_500 x_52404 zero_135)
			(mulacc_8 x_52454 zero_135 zero_135 x_52404)
			(mulacc_8 x_52455 (succ_131 zero_135) zero_135 x_52404)
			(mulacc_8 x_52456 zero_135 (succ_131 zero_135) x_52404)
			(mulacc_8 x_52457 zero_135 zero_135 (succ_131 zero_135))
			(addacc_18 x_52458 x_52455 x_52456 x_52457)
			(addacc_18 x_52459 (succ_131 zero_135) (succ_131 zero_135) (succ_131 x_52404))
			(addacc_18 x_52460 x_52454 x_52458 x_52459)
			(plus_129 fail_32 (succ_131 zero_135) x_52460))
		(mulacc_8 fail_32 (succ_131 zero_135) (succ_131 zero_135) (succ_131 x_52404)))))
(assert (forall ((x_52463 Nat_500) (x_52464 Nat_500) (x_52465 Nat_500) (x_52466 Nat_500) (x_52467 Nat_500) (x_52468 Nat_500) (x_52469 Nat_500) (fail_32 Nat_500) (x_52404 Nat_500) (x_52403 Nat_500) (x_52402 Nat_500))
	(=>	(and (diseqNat_500 x_52402 zero_135)
			(mulacc_8 x_52463 x_52402 x_52403 x_52404)
			(mulacc_8 x_52464 (succ_131 zero_135) x_52403 x_52404)
			(mulacc_8 x_52465 x_52402 (succ_131 zero_135) x_52404)
			(mulacc_8 x_52466 x_52402 x_52403 (succ_131 zero_135))
			(addacc_18 x_52467 x_52464 x_52465 x_52466)
			(addacc_18 x_52468 (succ_131 x_52402) (succ_131 x_52403) (succ_131 x_52404))
			(addacc_18 x_52469 x_52463 x_52467 x_52468)
			(plus_129 fail_32 (succ_131 zero_135) x_52469))
		(mulacc_8 fail_32 (succ_131 x_52402) (succ_131 x_52403) (succ_131 x_52404)))))
(assert (forall ((x_52472 Nat_500) (x_52473 Nat_500) (x_52474 Nat_500) (x_52475 Nat_500) (x_52476 Nat_500) (x_52477 Nat_500) (x_52478 Nat_500) (fail_32 Nat_500) (x_52404 Nat_500) (x_52403 Nat_500))
	(=>	(and (diseqNat_500 x_52403 zero_135)
			(mulacc_8 x_52472 zero_135 x_52403 x_52404)
			(mulacc_8 x_52473 (succ_131 zero_135) x_52403 x_52404)
			(mulacc_8 x_52474 zero_135 (succ_131 zero_135) x_52404)
			(mulacc_8 x_52475 zero_135 x_52403 (succ_131 zero_135))
			(addacc_18 x_52476 x_52473 x_52474 x_52475)
			(addacc_18 x_52477 (succ_131 zero_135) (succ_131 x_52403) (succ_131 x_52404))
			(addacc_18 x_52478 x_52472 x_52476 x_52477)
			(plus_129 fail_32 (succ_131 zero_135) x_52478))
		(mulacc_8 fail_32 (succ_131 zero_135) (succ_131 x_52403) (succ_131 x_52404)))))
(assert (forall ((x_52481 Nat_500) (x_52482 Nat_500) (x_52483 Nat_500) (x_52484 Nat_500) (x_52485 Nat_500) (x_52486 Nat_500) (x_52487 Nat_500) (fail_32 Nat_500) (x_52404 Nat_500) (x_52403 Nat_500) (x_52402 Nat_500))
	(=>	(and (diseqNat_500 x_52402 zero_135)
			(mulacc_8 x_52481 x_52402 x_52403 x_52404)
			(mulacc_8 x_52482 (succ_131 zero_135) x_52403 x_52404)
			(mulacc_8 x_52483 x_52402 (succ_131 zero_135) x_52404)
			(mulacc_8 x_52484 x_52402 x_52403 (succ_131 zero_135))
			(addacc_18 x_52485 x_52482 x_52483 x_52484)
			(addacc_18 x_52486 (succ_131 x_52402) (succ_131 x_52403) (succ_131 x_52404))
			(addacc_18 x_52487 x_52481 x_52485 x_52486)
			(plus_129 fail_32 (succ_131 zero_135) x_52487))
		(mulacc_8 fail_32 (succ_131 x_52402) (succ_131 x_52403) (succ_131 x_52404)))))
(assert (forall ((x_52403 Nat_500) (x_52402 Nat_500))
	(mulacc_8 zero_135 (succ_131 x_52402) (succ_131 x_52403) zero_135)))
(assert (forall ((x_52402 Nat_500) (z_1789 Nat_500))
	(mulacc_8 zero_135 (succ_131 x_52402) zero_135 z_1789)))
(assert (forall ((y_2009 Nat_500) (z_1789 Nat_500))
	(mulacc_8 zero_135 zero_135 y_2009 z_1789)))
(assert (forall ((x_52493 Nat_500) (x_52494 Nat_500) (x_52405 Nat_500) (y_2010 Nat_500) (z_1790 Nat_500))
	(=>	(and true
			(diseqNat_500 x_52493 x_52494)
			(mulacc_8 x_52493 x_52405 y_2010 z_1790)
			(mulacc_8 x_52494 x_52405 z_1790 y_2010))
		false)))
(assert (forall ((x_52495 Nat_500) (x_52496 Nat_500) (x_52497 Nat_500) (x_52498 Nat_500) (x_52406 Nat_500) (y_2011 Nat_500) (z_1791 Nat_500))
	(=>	(and true
			(diseqNat_500 x_52496 x_52498)
			(plus_129 x_52495 y_2011 z_1791)
			(plus_129 x_52496 x_52406 x_52495)
			(plus_129 x_52497 x_52406 y_2011)
			(plus_129 x_52498 x_52497 z_1791))
		false)))
(assert (forall ((x_52499 Nat_500) (x_52500 Nat_500) (x_52407 Nat_500) (y_2012 Nat_500))
	(=>	(and true
			(diseqNat_500 x_52499 x_52500)
			(plus_129 x_52499 x_52407 y_2012)
			(plus_129 x_52500 y_2012 x_52407))
		false)))
(assert (forall ((x_52501 Nat_500) (x_52408 Nat_500))
	(=>	(and true
			(diseqNat_500 x_52501 x_52408)
			(plus_129 x_52501 x_52408 zero_135))
		false)))
(assert (forall ((x_52502 Nat_500) (x_52409 Nat_500))
	(=>	(and true
			(diseqNat_500 x_52502 x_52409)
			(plus_129 x_52502 zero_135 x_52409))
		false)))
(check-sat)
